(set-option :incremental false)
(set-logic ALL)
(declare-const BAV1 Bool)
(declare-const GEN4 Int)
(declare-const GEN3 Int)
(declare-const GEN2 Int)
(declare-const GEN1 Int)
(declare-fun v0 () (_ BitVec 4))
(declare-fun v1 () (_ BitVec 4))
(assert (= BAV1 (distinct (bvmul v1 ((_ sign_extend 3) (ite (bvule v0 (_ bv0 4)) (_ bv1 1) (_ bv0 1)))) (bvsub v0 (bvmul v1 ((_ sign_extend 3) (ite (bvule v0 (_ bv0 4)) (_ bv1 1) (_ bv0 1))))))))
(check-sat-assuming ((distinct (bvmul v1 ((_ sign_extend 3) (ite (bvule v0 (_ bv0 4)) (_ bv1 1) (_ bv0 1)))) (bvsub v0 (bvmul v1 ((_ sign_extend 3) (ite (bvule v0 (_ bv0 4)) (_ bv1 1) (_ bv0 1))))))))
(get-model)